p cnf 9 39
-5 9 -2 0
-5 -4 -1 0
6 1 8 -5 9 0
3 6 5 0
-1 9 -4 0
1 2 -8 0
9 8 -5 3 -7 0
4 1 6 5 0
1 8 9 3 -4 -6 7 -2 0
-6 -8 0
4 7 5 9 3 -6 -2 0
-9 5 -1 -4 0
-8 -2 -6 4 0
-7 3 -6 -5 -8 -1 -2 0
-6 -9 -8 0
-7 -8 -6 0
-9 -5 2 0
1 2 6 -3 5 -8 9 0
-2 3 7 4 0
7 -1 -5 -6 2 -4 0
1 -3 2 -7 0
3 -6 -5 8 -1 0
5 3 0
-7 5 0
1 -5 6 0
-5 6 1 4 0
3 5 -7 0
4 -9 -2 0
-1 -4 2 0
7 -2 0
4 2 0
-6 -8 2 -3 -1 0
-1 9 8 4 7 0
1 2 -3 -5 -9 0
-1 7 -8 0
-2 8 -1 3 -5 -7 0
8 -5 -4 0
5 -9 8 6 0
7 5 2 0
